122 5
10 10 10 10 10 

0 0 0 0 0 0 5 2 14 26 38 50 
0 0 0 0 0 0 1 3 
5 0 1 0 0 0 2 4 64 
9 0 5 0 0 0 1 5 
5 0 2 0 0 0 3 9 7 6 
6 0 3 0 0 0 2 10 8 
1 0 2 0 0 0 2 11 10 
2 0 1 0 0 0 1 11 
10 0 4 0 0 0 1 10 
8 0 2 0 0 0 1 12 
1 0 2 0 0 0 1 12 
6 0 3 0 0 0 1 13 
0 0 0 0 0 0 1 62 
0 0 0 0 0 0 3 15 19 21 
7 1 0 0 0 0 1 16 
7 1 0 0 0 0 1 17 
3 4 0 0 0 0 2 24 18 
4 2 0 0 0 0 1 20 
6 5 0 0 0 0 1 20 
5 2 0 0 0 0 1 22 
7 3 0 0 0 0 1 22 
3 2 0 0 0 0 2 23 85 
7 3 0 0 0 0 1 25 
9 2 0 0 0 0 1 25 
0 0 0 0 0 0 1 62 
0 0 0 0 0 0 2 27 28 
2 1 0 0 0 0 2 33 29 
2 3 0 0 0 0 3 33 31 30 
10 3 0 0 0 0 2 31 30 
8 2 0 0 0 0 1 32 
2 2 0 0 0 0 1 32 
10 1 0 0 0 0 1 34 
4 5 0 0 0 0 1 34 
1 2 0 0 0 0 1 35 
4 4 0 0 0 0 2 36 46 
3 2 0 0 0 0 1 37 
0 0 0 0 0 0 1 62 
0 0 0 0 0 0 1 39 
7 0 0 0 0 1 1 40 
4 0 0 0 0 2 1 41 
5 0 0 0 0 2 2 44 42 
8 0 0 0 0 1 1 43 
1 0 0 0 0 6 2 46 45 
5 0 0 0 0 4 2 47 45 
8 0 0 0 0 1 1 48 
5 0 0 0 0 2 1 47 
1 0 0 0 0 4 2 49 70 
6 0 0 0 0 2 1 49 
0 0 0 0 0 0 1 62 
0 0 0 0 0 0 1 51 
1 0 0 1 0 0 2 57 52 
7 0 0 2 0 0 1 53 
6 0 0 2 0 0 2 56 54 
10 0 0 3 0 0 1 55 
1 0 0 1 0 0 2 60 58 
3 0 0 2 0 0 2 60 58 
10 0 0 3 0 0 1 58 
4 0 0 4 0 0 1 59 
7 0 0 3 0 0 1 61 
6 0 0 4 0 0 1 61 
0 0 0 0 0 0 1 62 
0 0 0 0 0 0 2 63 75 
0 0 0 0 0 0 2 64 65 
2 0 1 0 0 0 2 68 66 
2 0 1 0 0 0 2 68 66 
2 0 5 0 0 0 1 67 
8 0 1 0 0 0 1 69 
6 0 3 0 0 0 1 69 
2 0 3 0 0 0 2 73 70 
10 0 5 0 0 0 1 71 
7 0 2 0 0 0 1 72 
10 0 3 0 0 0 1 74 
9 0 1 0 0 0 1 74 
0 0 0 0 0 0 1 87 
0 0 0 0 0 0 2 76 81 
9 0 0 1 0 0 1 77 
10 0 0 6 0 0 1 78 
3 0 0 4 0 0 2 85 79 
4 0 0 2 0 0 2 84 80 
6 0 0 2 0 0 1 82 
7 0 0 1 0 0 1 82 
3 0 0 5 0 0 1 83 
6 0 0 1 0 0 1 86 
7 0 0 2 0 0 1 86 
7 0 0 1 0 0 1 86 
0 0 0 0 0 0 1 87 
0 0 0 0 0 0 1 88 
7 0 0 0 0 1 2 91 89 
2 0 0 0 0 2 2 93 90 
7 0 0 0 0 2 2 94 92 
5 0 0 0 0 3 2 93 92 
6 0 0 0 0 3 1 95 
2 0 0 0 0 3 1 95 
9 0 0 0 0 5 1 95 
2 0 0 0 0 3 1 96 
2 0 0 0 0 2 1 97 
3 0 0 0 0 1 1 98 
0 0 0 0 0 0 1 99 
0 0 0 0 0 0 3 100 103 106 
7 1 0 0 0 0 1 101 
10 2 0 0 0 0 2 105 102 
8 1 0 0 0 0 1 104 
3 3 0 0 0 0 1 104 
6 1 0 0 0 0 1 107 
7 3 0 0 0 0 1 107 
6 5 0 0 0 0 1 107 
7 2 0 0 0 0 1 108 
7 2 0 0 0 0 1 109 
1 5 0 0 0 0 1 110 
0 0 0 0 0 0 1 111 
0 0 0 0 0 0 3 112 114 121 
3 0 0 0 0 1 1 113 
5 0 0 0 0 4 1 115 
10 0 0 0 0 2 1 115 
6 0 0 0 0 3 2 120 116 
6 0 0 0 0 1 1 117 
3 0 0 0 0 5 1 118 
5 0 0 0 0 1 1 119 
6 0 0 0 0 1 1 122 
4 0 0 0 0 2 1 122 
9 0 0 0 0 5 1 122 
0 0 0 0 0 0 0 
